1682
1437
1465
1613
1845
999
976
1856
1396
1569
1825
1397
1649
1245
2169
1058
563
842
1686
765
1148
1993
1853
477
369
261
1480
1773
112
870
2029
1632
1878
1654
597
374
1785
1984
2163
122
1298
1636
2248
697
960
2147
1096
1651
1877
1067
